GLPSOL--GLPK LP/MIP Solver 5.0
Parameter(s) specified in the command line:
 --lp ../modeles/10_134.lp --log 10_134.log
Reading problem data from '../modeles/10_134.lp'...
1381 rows, 2700 columns, 9410 non-zeros
1340 integer variables, all of which are binary
4097 lines were read
GLPK Integer Optimizer 5.0
1381 rows, 2700 columns, 9410 non-zeros
1340 integer variables, all of which are binary
Preprocessing...
1340 constraint coefficient(s) were reduced
1381 rows, 2690 columns, 9400 non-zeros
1340 integer variables, all of which are binary
Scaling...
 A: min|aij| =  8.911e-04  max|aij| =  4.000e+00  ratio =  4.489e+03
GM: min|aij| =  1.222e-01  max|aij| =  8.185e+00  ratio =  6.700e+01
EQ: min|aij| =  1.493e-02  max|aij| =  1.000e+00  ratio =  6.700e+01
2N: min|aij| =  1.426e-02  max|aij| =  1.726e+00  ratio =  1.211e+02
Constructing initial basis...
Size of triangular part is 1381
Solving LP relaxation...
GLPK Simplex Optimizer 5.0
1381 rows, 2690 columns, 9400 non-zeros
      0: obj =   2.000000000e+01 inf =   4.950e+01 (21)
    169: obj =   5.232363758e-02 inf =   0.000e+00 (0)
*   523: obj =  -3.158848614e+00 inf =   3.998e-15 (0)
OPTIMAL LP SOLUTION FOUND
Integer optimization begins...
Long-step dual simplex will be used
+   523: mip =     not found yet >=              -inf        (1; 0)
+   531: >>>>>  -3.158848614e+00 >=  -3.158848614e+00   0.0% (7; 0)
+   531: mip =  -3.158848614e+00 >=     tree is empty   0.0% (0; 13)
INTEGER OPTIMAL SOLUTION FOUND
Time used:   0.0 secs
Memory used: 4.1 Mb (4271410 bytes)
